Minimize
  - 18 y_0 - 51 y_1 - 71 y_2 - 61 y_3 - 30 y_4 - 67 y_5 - 18 y_6 - 33 y_7
   - 79 y_8 - 61 y_9 - 22 y_10 - 29 y_11 - 58 y_12 - 17 y_13 - 27 y_14
   - 27 y_15 - 64 y_16 - 59 y_17 - 49 y_18 - 9 y_19 - 21 y_20 - 12 y_21
   - 29 y_22 - 36 y_23 - 39 y_24 - 50 y_25 - 68 y_26 - 22 y_27 - 57 y_28
   - 40 y_29 - 32 y_30 - 48 y_31 - 46 y_32 - 35 y_33 - 58 y_34 - 38 y_35
   - 24 y_36 - 12 y_37 - 23 y_38 - 28 y_39 - 32 y_40 - 45 y_41 - 62 y_42
   - 32 y_43 - 28 y_44 - 36 y_45 - 67 y_46 - 32 y_47 - 53 y_48 - 37 y_49
   - 75 y_50 - 54 y_51 - 37 y_53 - 25 y_54 - 44 y_55 - 49 y_56 - 59 y_57
   - 52 y_58 - 41 y_59 - 51 y_60 - 22 y_61 - 32 y_62 - 42 y_63 - 63 y_64
   - 41 y_65 - 42 y_66 - 50 y_67 - 45 y_68 - 52 y_69 - 43 y_70 - 55 y_71
   - 38 y_72 - 30 y_73 - 30 y_74 - 22 y_75 - 55 y_76 - 26 y_77 - 29 y_78
   - 52 y_79 - 61 y_80 - 47 y_81 - 59 y_82 - y_83 - 48 y_84 - 53 y_85
   - 67 y_86 - 58 y_87 - 59 y_88 - 65 y_89 - 30 y_90 - 39 y_91 - 19 y_92
   - 41 y_93 - 49 y_94 - 13 y_95 - 13 y_96 - 43 y_97 - 67 y_98 - 43 y_99
   + 4123 Constant
Subject To
 c_0: y_18 = 1
 c_1_0: y_0 >= 1
 c_1_1: y_1 >= 1
 c_1_2: y_2 >= 1
 c_1_3: y_3 + y_16 + y_87 >= 1
 c_1_4: y_4 >= 1
 c_1_5: y_5 + y_46 >= 1
 c_1_6: y_6 + y_96 >= 1
 c_1_7: y_7 >= 1
 c_1_8: y_8 + y_50 >= 1
 c_1_9: y_9 + y_82 >= 1
 c_1_10: y_10 >= 1
 c_1_11: y_11 >= 1
 c_1_12: y_12 + y_64 >= 1
 c_1_13: y_13 >= 1
 c_1_14: y_14 + y_36 >= 1
 c_1_15: y_15 >= 1
 c_1_16: y_3 + y_16 + y_86 >= 1
 c_1_17: y_17 + y_42 >= 1
 c_1_18: y_18 + y_31 >= 1
 c_1_19: y_19 >= 1
 c_1_20: y_20 + y_75 + y_77 >= 1
 c_1_21: y_21 + y_96 >= 1
 c_1_22: y_22 + y_74 + y_77 >= 1
 c_1_23: y_23 + y_29 + y_53 >= 1
 c_1_24: y_24 >= 1
 c_1_25: y_25 >= 1
 c_1_26: y_26 >= 1
 c_1_27: y_27 + y_61 >= 1
 c_1_28: y_28 + y_58 >= 1
 c_1_29: y_23 + y_29 + y_49 + y_53 + y_66 >= 1
 c_1_30: y_30 >= 1
 c_1_31: y_18 + y_31 >= 1
 c_1_32: y_32 >= 1
 c_1_33: y_33 + y_45 >= 1
 c_1_34: y_34 >= 1
 c_1_35: y_35 >= 1
 c_1_36: y_14 + y_36 >= 1
 c_1_37: y_37 >= 1
 c_1_38: y_38 + y_92 >= 1
 c_1_39: y_39 >= 1
 c_1_40: y_40 + y_78 >= 1
 c_1_41: y_41 >= 1
 c_1_42: y_17 + y_42 + y_89 >= 1
 c_1_43: y_43 + y_73 >= 1
 c_1_44: y_44 >= 1
 c_1_45: y_33 + y_45 >= 1
 c_1_46: y_5 + y_46 >= 1
 c_1_47: y_47 >= 1
 c_1_48: y_48 >= 1
 c_1_49: y_29 + y_49 + y_53 >= 1
 c_1_50: y_8 + y_50 >= 1
 c_1_51: y_51 + y_76 + y_82 >= 1
 c_1_52: y_52 + y_83 >= 1
 c_1_53: y_23 + y_29 + y_49 + y_53 + y_66 >= 1
 c_1_54: y_54 + y_61 >= 1
 c_1_55: y_55 + y_99 >= 1
 c_1_56: y_56 + y_60 + y_68 >= 1
 c_1_57: y_57 >= 1
 c_1_58: y_28 + y_58 >= 1
 c_1_59: y_59 + y_72 >= 1
 c_1_60: y_56 + y_60 >= 1
 c_1_61: y_27 + y_54 + y_61 >= 1
 c_1_62: y_62 >= 1
 c_1_63: y_63 + y_70 >= 1
 c_1_64: y_12 + y_64 >= 1
 c_1_65: y_65 >= 1
 c_1_66: y_29 + y_53 + y_66 >= 1
 c_1_67: y_67 >= 1
 c_1_68: y_56 + y_68 + y_93 >= 1
 c_1_69: y_69 + y_94 >= 1
 c_1_70: y_63 + y_70 >= 1
 c_1_71: y_71 + y_87 >= 1
 c_1_72: y_59 + y_72 >= 1
 c_1_73: y_43 + y_73 >= 1
 c_1_74: y_22 + y_74 + y_77 >= 1
 c_1_75: y_20 + y_75 >= 1
 c_1_76: y_51 + y_76 + y_82 >= 1
 c_1_77: y_20 + y_22 + y_74 + y_77 >= 1
 c_1_78: y_40 + y_78 >= 1
 c_1_79: y_79 + y_85 >= 1
 c_1_80: y_80 >= 1
 c_1_81: y_81 >= 1
 c_1_82: y_9 + y_51 + y_76 + y_82 >= 1
 c_1_83: y_52 + y_83 >= 1
 c_1_84: y_84 >= 1
 c_1_85: y_79 + y_85 >= 1
 c_1_86: y_16 + y_86 >= 1
 c_1_87: y_3 + y_71 + y_87 >= 1
 c_1_88: y_88 >= 1
 c_1_89: y_42 + y_89 >= 1
 c_1_90: y_90 >= 1
 c_1_91: y_91 >= 1
 c_1_92: y_38 + y_92 >= 1
 c_1_93: y_68 + y_93 >= 1
 c_1_94: y_69 + y_94 >= 1
 c_1_95: y_95 >= 1
 c_1_96: y_6 + y_21 + y_96 >= 1
 c_1_97: y_97 >= 1
 c_1_98: y_98 >= 1
 c_1_99: y_55 + y_99 >= 1
Bounds
 Constant = 1
Binaries
 y_0 y_1 y_2 y_3 y_4 y_5 y_6 y_7 y_8 y_9 y_10 y_11 y_12 y_13 y_14 y_15 y_16
 y_17 y_18 y_19 y_20 y_21 y_22 y_23 y_24 y_25 y_26 y_27 y_28 y_29 y_30 y_31
 y_32 y_33 y_34 y_35 y_36 y_37 y_38 y_39 y_40 y_41 y_42 y_43 y_44 y_45 y_46
 y_47 y_48 y_49 y_50 y_51 y_52 y_53 y_54 y_55 y_56 y_57 y_58 y_59 y_60 y_61
 y_62 y_63 y_64 y_65 y_66 y_67 y_68 y_69 y_70 y_71 y_72 y_73 y_74 y_75 y_76
 y_77 y_78 y_79 y_80 y_81 y_82 y_83 y_84 y_85 y_86 y_87 y_88 y_89 y_90 y_91
 y_92 y_93 y_94 y_95 y_96 y_97 y_98 y_99
End
